(set-logic QF_NRA)
(set-info :source |Benchmarks generated from hycomp (https://es-static.fbk.eu/tools/hycomp/). BMC instances of non-linear hybrid automata taken from: Alessandro Cimatti, Sergio Mover, Stefano Tonetta, A quantifier-free SMT encoding of non-linear hybrid automata, FMCAD 2012 and Alessandro Cimatti, Sergio Mover, Stefano Tonetta, Quantier-free encoding of invariants for Hybrid Systems, Formal Methods in System Design. This instance solves a BMC problem of depth 4 and uses the quantifier free encoding encoding. Contacts: Sergio Mover (mover@fbk.eu), Stefano Tonetta (tonettas@fbk.eu), Alessandro Cimatti (cimatti@fbk.eu).|)
(set-info :smt-lib-version 2.0)
(set-info :category "industrial")
(set-info :status unsat)
;; MathSAT API call trace
;; generated on Mon Mar 19 10:46:48 2012
(declare-fun b.speed_y__AT4 () Real)
(declare-fun b.speed_y__AT2 () Real)
(declare-fun b.y__AT0 () Real)
(declare-fun b.counter.0__AT0 () Bool)
(declare-fun b.EVENT.0__AT0 () Bool)
(declare-fun b.counter.3__AT0 () Bool)
(declare-fun b.counter.1__AT0 () Bool)
(declare-fun b.event_is_timed__AT1 () Bool)
(declare-fun b.bool_atom__AT1 () Bool)
(declare-fun b.g__AT0 () Real)
(declare-fun b.speed_y__AT0 () Real)
(declare-fun b.event_is_timed__AT3 () Bool)
(declare-fun b.x__AT1 () Real)
(declare-fun b.y__AT1 () Real)
(declare-fun b.counter.2__AT0 () Bool)
(declare-fun b.counter.0__AT1 () Bool)
(declare-fun b.counter.1__AT1 () Bool)
(declare-fun b.y__AT3 () Real)
(declare-fun b.event_is_timed__AT4 () Bool)
(declare-fun b.counter.2__AT1 () Bool)
(declare-fun b.event_is_timed__AT2 () Bool)
(declare-fun b.counter.0__AT3 () Bool)
(declare-fun b.time__AT2 () Real)
(declare-fun b.event_is_timed__AT0 () Bool)
(declare-fun b.time__AT3 () Real)
(declare-fun b.counter.3__AT1 () Bool)
(declare-fun b.bool_atom__AT0 () Bool)
(declare-fun b.counter.1__AT3 () Bool)
(declare-fun b.delta__AT2 () Real)
(declare-fun b.delta__AT3 () Real)
(declare-fun b.x__AT0 () Real)
(declare-fun b.x__AT3 () Real)
(declare-fun b.counter.2__AT3 () Bool)
(declare-fun b.y__AT4 () Real)
(declare-fun b.EVENT.0__AT3 () Bool)
(declare-fun b.counter.0__AT2 () Bool)
(declare-fun b.EVENT.1__AT3 () Bool)
(declare-fun b.y__AT2 () Real)
(declare-fun b.counter.3__AT3 () Bool)
(declare-fun b.time__AT4 () Real)
(declare-fun b.counter.0__AT4 () Bool)
(declare-fun b.delta__AT1 () Real)
(declare-fun b.counter.1__AT2 () Bool)
(declare-fun b.speed_y__AT1 () Real)
(declare-fun b.bool_atom__AT2 () Bool)
(declare-fun b.bool_atom__AT3 () Bool)
(declare-fun b.time__AT1 () Real)
(declare-fun b.delta__AT4 () Real)
(declare-fun b.counter.1__AT4 () Bool)
(declare-fun b.EVENT.0__AT1 () Bool)
(declare-fun b.counter.2__AT2 () Bool)
(declare-fun b.x__AT4 () Real)
(declare-fun b.time__AT0 () Real)
(declare-fun b.EVENT.0__AT4 () Bool)
(declare-fun b.x__AT2 () Real)
(declare-fun b.counter.2__AT4 () Bool)
(declare-fun b.EVENT.1__AT1 () Bool)
(declare-fun b.counter.3__AT2 () Bool)
(declare-fun b.EVENT.0__AT2 () Bool)
(declare-fun b.speed_y__AT3 () Real)
(declare-fun b.delta__AT0 () Real)
(declare-fun b.EVENT.1__AT4 () Bool)
(declare-fun b.counter.3__AT4 () Bool)
(declare-fun b.EVENT.1__AT2 () Bool)
(declare-fun b.EVENT.1__AT0 () Bool)
(declare-fun b.bool_atom__AT4 () Bool)
(assert (let ((.def_70 (* (- 1.0) b.g__AT0)))
(let ((.def_73 (* (/ 1 2) .def_70)))
(let ((.def_86 (* 2.0 .def_73)))
(let ((.def_92 (* (- 1.0) .def_86)))
(let ((.def_832 (* .def_92 b.delta__AT4)))
(let ((.def_833 (<= b.speed_y__AT4 .def_832)))
(let ((.def_831 (<= b.speed_y__AT4 0.0 )))
(let ((.def_834 (and .def_831 .def_833)))
(let ((.def_827 (* .def_86 b.delta__AT4)))
(let ((.def_828 (+ b.speed_y__AT4 .def_827)))
(let ((.def_829 (<= 0.0 .def_828)))
(let ((.def_826 (<= 0.0 b.speed_y__AT4)))
(let ((.def_830 (and .def_826 .def_829)))
(let ((.def_835 (or .def_830 .def_834)))
(let ((.def_817 (* b.speed_y__AT4 b.delta__AT4)))
(let ((.def_815 (* b.delta__AT4 b.delta__AT4)))
(let ((.def_816 (* .def_73 .def_815)))
(let ((.def_818 (+ .def_816 .def_817)))
(let ((.def_801 (* (- 1.0) b.x__AT4)))
(let ((.def_802 (* b.x__AT4 .def_801)))
(let ((.def_819 (* (- 1.0) .def_802)))
(let ((.def_822 (+ .def_819 .def_818)))
(let ((.def_823 (+ b.y__AT4 .def_822)))
(let ((.def_824 (<= 0.0 .def_823)))
(let ((.def_803 (<= .def_802 b.y__AT4)))
(let ((.def_825 (and .def_803 .def_824)))
(let ((.def_836 (and .def_825 .def_835)))
(let ((.def_62 (<= b.g__AT0 10.0 )))
(let ((.def_61 (<= 8.0 b.g__AT0)))
(let ((.def_63 (and .def_61 .def_62)))
(let ((.def_837 (and .def_63 .def_836)))
(let ((.def_539 (not b.counter.0__AT3)))
(let ((.def_529 (not b.counter.1__AT3)))
(let ((.def_807 (and .def_529 .def_539)))
(let ((.def_810 (or b.counter.3__AT3 .def_807)))
(let ((.def_534 (not b.counter.2__AT3)))
(let ((.def_808 (and .def_534 .def_807)))
(let ((.def_548 (not b.counter.3__AT3)))
(let ((.def_809 (or .def_548 .def_808)))
(let ((.def_811 (and .def_809 .def_810)))
(let ((.def_804 (and .def_63 .def_803)))
(let ((.def_798 (not b.EVENT.0__AT4)))
(let ((.def_796 (not b.EVENT.1__AT4)))
(let ((.def_799 (or .def_796 .def_798)))
(let ((.def_6 (not b.counter.0__AT4)))
(let ((.def_4 (not b.counter.1__AT4)))
(let ((.def_789 (or .def_4 .def_6)))
(let ((.def_793 (or b.counter.3__AT4 .def_789)))
(let ((.def_790 (or b.counter.2__AT4 .def_789)))
(let ((.def_9 (not b.counter.2__AT4)))
(let ((.def_788 (or .def_6 .def_9)))
(let ((.def_791 (and .def_788 .def_790)))
(let ((.def_12 (not b.counter.3__AT4)))
(let ((.def_792 (or .def_12 .def_791)))
(let ((.def_794 (and .def_792 .def_793)))
(let ((.def_800 (and .def_794 .def_799)))
(let ((.def_805 (and .def_800 .def_804)))
(let ((.def_783 (<= 0.0 b.delta__AT3)))
(let ((.def_619 (not b.EVENT.0__AT3)))
(let ((.def_617 (not b.EVENT.1__AT3)))
(let ((.def_660 (and .def_617 .def_619)))
(let ((.def_662 (not .def_660)))
(let ((.def_784 (or .def_662 .def_783)))
(let ((.def_785 (or b.EVENT.1__AT3 .def_784)))
(let ((.def_697 (= b.bool_atom__AT3 b.bool_atom__AT4)))
(let ((.def_693 (= b.counter.0__AT4 b.counter.0__AT3)))
(let ((.def_691 (= b.counter.1__AT4 b.counter.1__AT3)))
(let ((.def_689 (= b.counter.2__AT4 b.counter.2__AT3)))
(let ((.def_688 (= b.counter.3__AT4 b.counter.3__AT3)))
(let ((.def_690 (and .def_688 .def_689)))
(let ((.def_692 (and .def_690 .def_691)))
(let ((.def_694 (and .def_692 .def_693)))
(let ((.def_779 (and .def_694 .def_697)))
(let ((.def_780 (or .def_662 .def_779)))
(let ((.def_781 (or b.EVENT.1__AT3 .def_780)))
(let ((.def_768 (* .def_70 b.delta__AT3)))
(let ((.def_769 (* (- 1.0) b.speed_y__AT4)))
(let ((.def_772 (+ .def_769 .def_768)))
(let ((.def_773 (+ b.speed_y__AT3 .def_772)))
(let ((.def_774 (= .def_773 0.0 )))
(let ((.def_759 (* (- 1.0) b.y__AT4)))
(let ((.def_638 (* b.speed_y__AT3 b.delta__AT3)))
(let ((.def_763 (+ .def_638 .def_759)))
(let ((.def_636 (* b.delta__AT3 b.delta__AT3)))
(let ((.def_637 (* .def_73 .def_636)))
(let ((.def_764 (+ .def_637 .def_763)))
(let ((.def_765 (+ b.y__AT3 .def_764)))
(let ((.def_766 (= .def_765 0.0 )))
(let ((.def_680 (= b.x__AT3 b.x__AT4)))
(let ((.def_767 (and .def_680 .def_766)))
(let ((.def_775 (and .def_767 .def_774)))
(let ((.def_776 (or .def_662 .def_775)))
(let ((.def_683 (= b.y__AT3 b.y__AT4)))
(let ((.def_754 (and .def_680 .def_683)))
(let ((.def_686 (= b.speed_y__AT3 b.speed_y__AT4)))
(let ((.def_755 (and .def_686 .def_754)))
(let ((.def_751 (= b.delta__AT3 0.0 )))
(let ((.def_752 (and .def_660 .def_751)))
(let ((.def_753 (not .def_752)))
(let ((.def_756 (or .def_753 .def_755)))
(let ((.def_757 (or b.EVENT.1__AT3 .def_756)))
(let ((.def_744 (and .def_686 .def_694)))
(let ((.def_745 (or b.bool_atom__AT3 .def_744)))
(let ((.def_720 (or .def_6 b.counter.0__AT3)))
(let ((.def_719 (or b.counter.0__AT4 .def_539)))
(let ((.def_721 (and .def_719 .def_720)))
(let ((.def_722 (and .def_4 .def_721)))
(let ((.def_723 (or b.counter.1__AT3 .def_722)))
(let ((.def_718 (or b.counter.1__AT4 .def_529)))
(let ((.def_724 (and .def_718 .def_723)))
(let ((.def_735 (and .def_9 .def_724)))
(let ((.def_736 (or b.counter.2__AT3 .def_735)))
(let ((.def_730 (and .def_4 .def_539)))
(let ((.def_731 (or b.counter.1__AT3 .def_730)))
(let ((.def_732 (and .def_718 .def_731)))
(let ((.def_733 (and b.counter.2__AT4 .def_732)))
(let ((.def_734 (or .def_534 .def_733)))
(let ((.def_737 (and .def_734 .def_736)))
(let ((.def_738 (and b.counter.3__AT4 .def_737)))
(let ((.def_739 (or b.counter.3__AT3 .def_738)))
(let ((.def_725 (and b.counter.2__AT4 .def_724)))
(let ((.def_726 (or b.counter.2__AT3 .def_725)))
(let ((.def_714 (or b.counter.1__AT4 b.counter.1__AT3)))
(let ((.def_712 (and .def_4 b.counter.0__AT4)))
(let ((.def_713 (or .def_529 .def_712)))
(let ((.def_715 (and .def_713 .def_714)))
(let ((.def_716 (and .def_9 .def_715)))
(let ((.def_717 (or .def_534 .def_716)))
(let ((.def_727 (and .def_717 .def_726)))
(let ((.def_728 (and .def_12 .def_727)))
(let ((.def_729 (or .def_548 .def_728)))
(let ((.def_740 (and .def_729 .def_739)))
(let ((.def_709 (* b.speed_y__AT4 b.speed_y__AT4)))
(let ((.def_526 (* b.speed_y__AT3 b.speed_y__AT3)))
(let ((.def_710 (= .def_526 .def_709)))
(let ((.def_707 (+ b.speed_y__AT3 b.speed_y__AT4)))
(let ((.def_708 (= .def_707 0.0 )))
(let ((.def_711 (and .def_708 .def_710)))
(let ((.def_741 (and .def_711 .def_740)))
(let ((.def_706 (not b.bool_atom__AT3)))
(let ((.def_742 (or .def_706 .def_741)))
(let ((.def_647 (<= 0.0 b.speed_y__AT3)))
(let ((.def_703 (not .def_647)))
(let ((.def_622 (* (- 1.0) b.x__AT3)))
(let ((.def_623 (* b.x__AT3 .def_622)))
(let ((.def_702 (= b.y__AT3 .def_623)))
(let ((.def_704 (and .def_702 .def_703)))
(let ((.def_705 (= b.bool_atom__AT3 .def_704)))
(let ((.def_743 (and .def_705 .def_742)))
(let ((.def_746 (and .def_743 .def_745)))
(let ((.def_747 (and .def_680 .def_746)))
(let ((.def_748 (and .def_683 .def_747)))
(let ((.def_749 (or .def_660 .def_748)))
(let ((.def_750 (or b.EVENT.1__AT3 .def_749)))
(let ((.def_758 (and .def_750 .def_757)))
(let ((.def_777 (and .def_758 .def_776)))
(let ((.def_667 (= b.time__AT3 b.time__AT4)))
(let ((.def_681 (and .def_667 .def_680)))
(let ((.def_684 (and .def_681 .def_683)))
(let ((.def_687 (and .def_684 .def_686)))
(let ((.def_695 (and .def_687 .def_694)))
(let ((.def_698 (and .def_695 .def_697)))
(let ((.def_699 (or .def_617 .def_698)))
(let ((.def_670 (* (- 1.0) b.time__AT4)))
(let ((.def_673 (+ b.delta__AT3 .def_670)))
(let ((.def_674 (+ b.time__AT3 .def_673)))
(let ((.def_675 (= .def_674 0.0 )))
(let ((.def_676 (or .def_662 .def_675)))
(let ((.def_677 (or b.EVENT.1__AT3 .def_676)))
(let ((.def_668 (or .def_660 .def_667)))
(let ((.def_669 (or b.EVENT.1__AT3 .def_668)))
(let ((.def_678 (and .def_669 .def_677)))
(let ((.def_700 (and .def_678 .def_699)))
(let ((.def_664 (= .def_662 b.event_is_timed__AT4)))
(let ((.def_661 (= b.event_is_timed__AT3 .def_660)))
(let ((.def_665 (and .def_661 .def_664)))
(let ((.def_701 (and .def_665 .def_700)))
(let ((.def_778 (and .def_701 .def_777)))
(let ((.def_782 (and .def_778 .def_781)))
(let ((.def_786 (and .def_782 .def_785)))
(let ((.def_787 (and .def_617 .def_786)))
(let ((.def_806 (and .def_787 .def_805)))
(let ((.def_812 (and .def_806 .def_811)))
(let ((.def_653 (* .def_92 b.delta__AT3)))
(let ((.def_654 (<= b.speed_y__AT3 .def_653)))
(let ((.def_652 (<= b.speed_y__AT3 0.0 )))
(let ((.def_655 (and .def_652 .def_654)))
(let ((.def_648 (* .def_86 b.delta__AT3)))
(let ((.def_649 (+ b.speed_y__AT3 .def_648)))
(let ((.def_650 (<= 0.0 .def_649)))
(let ((.def_651 (and .def_647 .def_650)))
(let ((.def_656 (or .def_651 .def_655)))
(let ((.def_639 (+ .def_637 .def_638)))
(let ((.def_640 (* (- 1.0) .def_623)))
(let ((.def_643 (+ .def_640 .def_639)))
(let ((.def_644 (+ b.y__AT3 .def_643)))
(let ((.def_645 (<= 0.0 .def_644)))
(let ((.def_624 (<= .def_623 b.y__AT3)))
(let ((.def_646 (and .def_624 .def_645)))
(let ((.def_657 (and .def_646 .def_656)))
(let ((.def_658 (and .def_63 .def_657)))
(let ((.def_352 (not b.counter.0__AT2)))
(let ((.def_342 (not b.counter.1__AT2)))
(let ((.def_628 (and .def_342 .def_352)))
(let ((.def_631 (or b.counter.3__AT2 .def_628)))
(let ((.def_347 (not b.counter.2__AT2)))
(let ((.def_629 (and .def_347 .def_628)))
(let ((.def_361 (not b.counter.3__AT2)))
(let ((.def_630 (or .def_361 .def_629)))
(let ((.def_632 (and .def_630 .def_631)))
(let ((.def_625 (and .def_63 .def_624)))
(let ((.def_620 (or .def_617 .def_619)))
(let ((.def_610 (or .def_529 .def_539)))
(let ((.def_614 (or b.counter.3__AT3 .def_610)))
(let ((.def_611 (or b.counter.2__AT3 .def_610)))
(let ((.def_609 (or .def_534 .def_539)))
(let ((.def_612 (and .def_609 .def_611)))
(let ((.def_613 (or .def_548 .def_612)))
(let ((.def_615 (and .def_613 .def_614)))
(let ((.def_621 (and .def_615 .def_620)))
(let ((.def_626 (and .def_621 .def_625)))
(let ((.def_604 (<= 0.0 b.delta__AT2)))
(let ((.def_432 (not b.EVENT.0__AT2)))
(let ((.def_430 (not b.EVENT.1__AT2)))
(let ((.def_473 (and .def_430 .def_432)))
(let ((.def_475 (not .def_473)))
(let ((.def_605 (or .def_475 .def_604)))
(let ((.def_606 (or b.EVENT.1__AT2 .def_605)))
(let ((.def_514 (= b.bool_atom__AT2 b.bool_atom__AT3)))
(let ((.def_510 (= b.counter.0__AT2 b.counter.0__AT3)))
(let ((.def_507 (= b.counter.1__AT2 b.counter.1__AT3)))
(let ((.def_504 (= b.counter.2__AT2 b.counter.2__AT3)))
(let ((.def_502 (= b.counter.3__AT2 b.counter.3__AT3)))
(let ((.def_505 (and .def_502 .def_504)))
(let ((.def_508 (and .def_505 .def_507)))
(let ((.def_511 (and .def_508 .def_510)))
(let ((.def_600 (and .def_511 .def_514)))
(let ((.def_601 (or .def_475 .def_600)))
(let ((.def_602 (or b.EVENT.1__AT2 .def_601)))
(let ((.def_589 (* .def_70 b.delta__AT2)))
(let ((.def_590 (* (- 1.0) b.speed_y__AT3)))
(let ((.def_593 (+ .def_590 .def_589)))
(let ((.def_594 (+ b.speed_y__AT2 .def_593)))
(let ((.def_595 (= .def_594 0.0 )))
(let ((.def_580 (* (- 1.0) b.y__AT3)))
(let ((.def_451 (* b.speed_y__AT2 b.delta__AT2)))
(let ((.def_584 (+ .def_451 .def_580)))
(let ((.def_449 (* b.delta__AT2 b.delta__AT2)))
(let ((.def_450 (* .def_73 .def_449)))
(let ((.def_585 (+ .def_450 .def_584)))
(let ((.def_586 (+ b.y__AT2 .def_585)))
(let ((.def_587 (= .def_586 0.0 )))
(let ((.def_493 (= b.x__AT2 b.x__AT3)))
(let ((.def_588 (and .def_493 .def_587)))
(let ((.def_596 (and .def_588 .def_595)))
(let ((.def_597 (or .def_475 .def_596)))
(let ((.def_496 (= b.y__AT2 b.y__AT3)))
(let ((.def_575 (and .def_493 .def_496)))
(let ((.def_499 (= b.speed_y__AT2 b.speed_y__AT3)))
(let ((.def_576 (and .def_499 .def_575)))
(let ((.def_572 (= b.delta__AT2 0.0 )))
(let ((.def_573 (and .def_473 .def_572)))
(let ((.def_574 (not .def_573)))
(let ((.def_577 (or .def_574 .def_576)))
(let ((.def_578 (or b.EVENT.1__AT2 .def_577)))
(let ((.def_565 (and .def_499 .def_511)))
(let ((.def_566 (or b.bool_atom__AT2 .def_565)))
(let ((.def_540 (or b.counter.0__AT2 .def_539)))
(let ((.def_538 (or .def_352 b.counter.0__AT3)))
(let ((.def_541 (and .def_538 .def_540)))
(let ((.def_542 (and .def_529 .def_541)))
(let ((.def_543 (or b.counter.1__AT2 .def_542)))
(let ((.def_537 (or .def_342 b.counter.1__AT3)))
(let ((.def_544 (and .def_537 .def_543)))
(let ((.def_556 (and .def_534 .def_544)))
(let ((.def_557 (or b.counter.2__AT2 .def_556)))
(let ((.def_551 (and .def_352 .def_529)))
(let ((.def_552 (or b.counter.1__AT2 .def_551)))
(let ((.def_553 (and .def_537 .def_552)))
(let ((.def_554 (and b.counter.2__AT3 .def_553)))
(let ((.def_555 (or .def_347 .def_554)))
(let ((.def_558 (and .def_555 .def_557)))
(let ((.def_559 (and b.counter.3__AT3 .def_558)))
(let ((.def_560 (or b.counter.3__AT2 .def_559)))
(let ((.def_545 (and b.counter.2__AT3 .def_544)))
(let ((.def_546 (or b.counter.2__AT2 .def_545)))
(let ((.def_532 (or b.counter.1__AT2 b.counter.1__AT3)))
(let ((.def_530 (and b.counter.0__AT3 .def_529)))
(let ((.def_531 (or .def_342 .def_530)))
(let ((.def_533 (and .def_531 .def_532)))
(let ((.def_535 (and .def_533 .def_534)))
(let ((.def_536 (or .def_347 .def_535)))
(let ((.def_547 (and .def_536 .def_546)))
(let ((.def_549 (and .def_547 .def_548)))
(let ((.def_550 (or .def_361 .def_549)))
(let ((.def_561 (and .def_550 .def_560)))
(let ((.def_339 (* b.speed_y__AT2 b.speed_y__AT2)))
(let ((.def_527 (= .def_339 .def_526)))
(let ((.def_524 (+ b.speed_y__AT2 b.speed_y__AT3)))
(let ((.def_525 (= .def_524 0.0 )))
(let ((.def_528 (and .def_525 .def_527)))
(let ((.def_562 (and .def_528 .def_561)))
(let ((.def_523 (not b.bool_atom__AT2)))
(let ((.def_563 (or .def_523 .def_562)))
(let ((.def_460 (<= 0.0 b.speed_y__AT2)))
(let ((.def_520 (not .def_460)))
(let ((.def_435 (* (- 1.0) b.x__AT2)))
(let ((.def_436 (* b.x__AT2 .def_435)))
(let ((.def_519 (= b.y__AT2 .def_436)))
(let ((.def_521 (and .def_519 .def_520)))
(let ((.def_522 (= b.bool_atom__AT2 .def_521)))
(let ((.def_564 (and .def_522 .def_563)))
(let ((.def_567 (and .def_564 .def_566)))
(let ((.def_568 (and .def_493 .def_567)))
(let ((.def_569 (and .def_496 .def_568)))
(let ((.def_570 (or .def_473 .def_569)))
(let ((.def_571 (or b.EVENT.1__AT2 .def_570)))
(let ((.def_579 (and .def_571 .def_578)))
(let ((.def_598 (and .def_579 .def_597)))
(let ((.def_480 (= b.time__AT2 b.time__AT3)))
(let ((.def_494 (and .def_480 .def_493)))
(let ((.def_497 (and .def_494 .def_496)))
(let ((.def_500 (and .def_497 .def_499)))
(let ((.def_512 (and .def_500 .def_511)))
(let ((.def_515 (and .def_512 .def_514)))
(let ((.def_516 (or .def_430 .def_515)))
(let ((.def_483 (* (- 1.0) b.time__AT3)))
(let ((.def_486 (+ b.delta__AT2 .def_483)))
(let ((.def_487 (+ b.time__AT2 .def_486)))
(let ((.def_488 (= .def_487 0.0 )))
(let ((.def_489 (or .def_475 .def_488)))
(let ((.def_490 (or b.EVENT.1__AT2 .def_489)))
(let ((.def_481 (or .def_473 .def_480)))
(let ((.def_482 (or b.EVENT.1__AT2 .def_481)))
(let ((.def_491 (and .def_482 .def_490)))
(let ((.def_517 (and .def_491 .def_516)))
(let ((.def_477 (= .def_475 b.event_is_timed__AT3)))
(let ((.def_474 (= b.event_is_timed__AT2 .def_473)))
(let ((.def_478 (and .def_474 .def_477)))
(let ((.def_518 (and .def_478 .def_517)))
(let ((.def_599 (and .def_518 .def_598)))
(let ((.def_603 (and .def_599 .def_602)))
(let ((.def_607 (and .def_603 .def_606)))
(let ((.def_608 (and .def_430 .def_607)))
(let ((.def_627 (and .def_608 .def_626)))
(let ((.def_633 (and .def_627 .def_632)))
(let ((.def_466 (* .def_92 b.delta__AT2)))
(let ((.def_467 (<= b.speed_y__AT2 .def_466)))
(let ((.def_465 (<= b.speed_y__AT2 0.0 )))
(let ((.def_468 (and .def_465 .def_467)))
(let ((.def_461 (* .def_86 b.delta__AT2)))
(let ((.def_462 (+ b.speed_y__AT2 .def_461)))
(let ((.def_463 (<= 0.0 .def_462)))
(let ((.def_464 (and .def_460 .def_463)))
(let ((.def_469 (or .def_464 .def_468)))
(let ((.def_452 (+ .def_450 .def_451)))
(let ((.def_453 (* (- 1.0) .def_436)))
(let ((.def_456 (+ .def_453 .def_452)))
(let ((.def_457 (+ b.y__AT2 .def_456)))
(let ((.def_458 (<= 0.0 .def_457)))
(let ((.def_437 (<= .def_436 b.y__AT2)))
(let ((.def_459 (and .def_437 .def_458)))
(let ((.def_470 (and .def_459 .def_469)))
(let ((.def_471 (and .def_63 .def_470)))
(let ((.def_168 (not b.counter.0__AT1)))
(let ((.def_158 (not b.counter.1__AT1)))
(let ((.def_441 (and .def_158 .def_168)))
(let ((.def_444 (or b.counter.3__AT1 .def_441)))
(let ((.def_163 (not b.counter.2__AT1)))
(let ((.def_442 (and .def_163 .def_441)))
(let ((.def_177 (not b.counter.3__AT1)))
(let ((.def_443 (or .def_177 .def_442)))
(let ((.def_445 (and .def_443 .def_444)))
(let ((.def_438 (and .def_63 .def_437)))
(let ((.def_433 (or .def_430 .def_432)))
(let ((.def_423 (or .def_342 .def_352)))
(let ((.def_427 (or b.counter.3__AT2 .def_423)))
(let ((.def_424 (or b.counter.2__AT2 .def_423)))
(let ((.def_422 (or .def_347 .def_352)))
(let ((.def_425 (and .def_422 .def_424)))
(let ((.def_426 (or .def_361 .def_425)))
(let ((.def_428 (and .def_426 .def_427)))
(let ((.def_434 (and .def_428 .def_433)))
(let ((.def_439 (and .def_434 .def_438)))
(let ((.def_417 (<= 0.0 b.delta__AT1)))
(let ((.def_247 (not b.EVENT.0__AT1)))
(let ((.def_245 (not b.EVENT.1__AT1)))
(let ((.def_286 (and .def_245 .def_247)))
(let ((.def_288 (not .def_286)))
(let ((.def_418 (or .def_288 .def_417)))
(let ((.def_419 (or b.EVENT.1__AT1 .def_418)))
(let ((.def_327 (= b.bool_atom__AT1 b.bool_atom__AT2)))
(let ((.def_323 (= b.counter.0__AT1 b.counter.0__AT2)))
(let ((.def_320 (= b.counter.1__AT1 b.counter.1__AT2)))
(let ((.def_317 (= b.counter.2__AT1 b.counter.2__AT2)))
(let ((.def_315 (= b.counter.3__AT1 b.counter.3__AT2)))
(let ((.def_318 (and .def_315 .def_317)))
(let ((.def_321 (and .def_318 .def_320)))
(let ((.def_324 (and .def_321 .def_323)))
(let ((.def_413 (and .def_324 .def_327)))
(let ((.def_414 (or .def_288 .def_413)))
(let ((.def_415 (or b.EVENT.1__AT1 .def_414)))
(let ((.def_402 (* .def_70 b.delta__AT1)))
(let ((.def_403 (* (- 1.0) b.speed_y__AT2)))
(let ((.def_406 (+ .def_403 .def_402)))
(let ((.def_407 (+ b.speed_y__AT1 .def_406)))
(let ((.def_408 (= .def_407 0.0 )))
(let ((.def_393 (* (- 1.0) b.y__AT2)))
(let ((.def_264 (* b.speed_y__AT1 b.delta__AT1)))
(let ((.def_397 (+ .def_264 .def_393)))
(let ((.def_262 (* b.delta__AT1 b.delta__AT1)))
(let ((.def_263 (* .def_73 .def_262)))
(let ((.def_398 (+ .def_263 .def_397)))
(let ((.def_399 (+ b.y__AT1 .def_398)))
(let ((.def_400 (= .def_399 0.0 )))
(let ((.def_306 (= b.x__AT1 b.x__AT2)))
(let ((.def_401 (and .def_306 .def_400)))
(let ((.def_409 (and .def_401 .def_408)))
(let ((.def_410 (or .def_288 .def_409)))
(let ((.def_309 (= b.y__AT1 b.y__AT2)))
(let ((.def_388 (and .def_306 .def_309)))
(let ((.def_312 (= b.speed_y__AT1 b.speed_y__AT2)))
(let ((.def_389 (and .def_312 .def_388)))
(let ((.def_385 (= b.delta__AT1 0.0 )))
(let ((.def_386 (and .def_286 .def_385)))
(let ((.def_387 (not .def_386)))
(let ((.def_390 (or .def_387 .def_389)))
(let ((.def_391 (or b.EVENT.1__AT1 .def_390)))
(let ((.def_378 (and .def_312 .def_324)))
(let ((.def_379 (or b.bool_atom__AT1 .def_378)))
(let ((.def_353 (or b.counter.0__AT1 .def_352)))
(let ((.def_351 (or .def_168 b.counter.0__AT2)))
(let ((.def_354 (and .def_351 .def_353)))
(let ((.def_355 (and .def_342 .def_354)))
(let ((.def_356 (or b.counter.1__AT1 .def_355)))
(let ((.def_350 (or .def_158 b.counter.1__AT2)))
(let ((.def_357 (and .def_350 .def_356)))
(let ((.def_369 (and .def_347 .def_357)))
(let ((.def_370 (or b.counter.2__AT1 .def_369)))
(let ((.def_364 (and .def_168 .def_342)))
(let ((.def_365 (or b.counter.1__AT1 .def_364)))
(let ((.def_366 (and .def_350 .def_365)))
(let ((.def_367 (and b.counter.2__AT2 .def_366)))
(let ((.def_368 (or .def_163 .def_367)))
(let ((.def_371 (and .def_368 .def_370)))
(let ((.def_372 (and b.counter.3__AT2 .def_371)))
(let ((.def_373 (or b.counter.3__AT1 .def_372)))
(let ((.def_358 (and b.counter.2__AT2 .def_357)))
(let ((.def_359 (or b.counter.2__AT1 .def_358)))
(let ((.def_345 (or b.counter.1__AT1 b.counter.1__AT2)))
(let ((.def_343 (and b.counter.0__AT2 .def_342)))
(let ((.def_344 (or .def_158 .def_343)))
(let ((.def_346 (and .def_344 .def_345)))
(let ((.def_348 (and .def_346 .def_347)))
(let ((.def_349 (or .def_163 .def_348)))
(let ((.def_360 (and .def_349 .def_359)))
(let ((.def_362 (and .def_360 .def_361)))
(let ((.def_363 (or .def_177 .def_362)))
(let ((.def_374 (and .def_363 .def_373)))
(let ((.def_154 (* b.speed_y__AT1 b.speed_y__AT1)))
(let ((.def_340 (= .def_154 .def_339)))
(let ((.def_337 (+ b.speed_y__AT1 b.speed_y__AT2)))
(let ((.def_338 (= .def_337 0.0 )))
(let ((.def_341 (and .def_338 .def_340)))
(let ((.def_375 (and .def_341 .def_374)))
(let ((.def_336 (not b.bool_atom__AT1)))
(let ((.def_376 (or .def_336 .def_375)))
(let ((.def_273 (<= 0.0 b.speed_y__AT1)))
(let ((.def_333 (not .def_273)))
(let ((.def_250 (* (- 1.0) b.x__AT1)))
(let ((.def_251 (* b.x__AT1 .def_250)))
(let ((.def_332 (= b.y__AT1 .def_251)))
(let ((.def_334 (and .def_332 .def_333)))
(let ((.def_335 (= b.bool_atom__AT1 .def_334)))
(let ((.def_377 (and .def_335 .def_376)))
(let ((.def_380 (and .def_377 .def_379)))
(let ((.def_381 (and .def_306 .def_380)))
(let ((.def_382 (and .def_309 .def_381)))
(let ((.def_383 (or .def_286 .def_382)))
(let ((.def_384 (or b.EVENT.1__AT1 .def_383)))
(let ((.def_392 (and .def_384 .def_391)))
(let ((.def_411 (and .def_392 .def_410)))
(let ((.def_293 (= b.time__AT1 b.time__AT2)))
(let ((.def_307 (and .def_293 .def_306)))
(let ((.def_310 (and .def_307 .def_309)))
(let ((.def_313 (and .def_310 .def_312)))
(let ((.def_325 (and .def_313 .def_324)))
(let ((.def_328 (and .def_325 .def_327)))
(let ((.def_329 (or .def_245 .def_328)))
(let ((.def_296 (* (- 1.0) b.time__AT2)))
(let ((.def_299 (+ b.delta__AT1 .def_296)))
(let ((.def_300 (+ b.time__AT1 .def_299)))
(let ((.def_301 (= .def_300 0.0 )))
(let ((.def_302 (or .def_288 .def_301)))
(let ((.def_303 (or b.EVENT.1__AT1 .def_302)))
(let ((.def_294 (or .def_286 .def_293)))
(let ((.def_295 (or b.EVENT.1__AT1 .def_294)))
(let ((.def_304 (and .def_295 .def_303)))
(let ((.def_330 (and .def_304 .def_329)))
(let ((.def_290 (= .def_288 b.event_is_timed__AT2)))
(let ((.def_287 (= b.event_is_timed__AT1 .def_286)))
(let ((.def_291 (and .def_287 .def_290)))
(let ((.def_331 (and .def_291 .def_330)))
(let ((.def_412 (and .def_331 .def_411)))
(let ((.def_416 (and .def_412 .def_415)))
(let ((.def_420 (and .def_416 .def_419)))
(let ((.def_421 (and .def_245 .def_420)))
(let ((.def_440 (and .def_421 .def_439)))
(let ((.def_446 (and .def_440 .def_445)))
(let ((.def_279 (* .def_92 b.delta__AT1)))
(let ((.def_280 (<= b.speed_y__AT1 .def_279)))
(let ((.def_278 (<= b.speed_y__AT1 0.0 )))
(let ((.def_281 (and .def_278 .def_280)))
(let ((.def_274 (* .def_86 b.delta__AT1)))
(let ((.def_275 (+ b.speed_y__AT1 .def_274)))
(let ((.def_276 (<= 0.0 .def_275)))
(let ((.def_277 (and .def_273 .def_276)))
(let ((.def_282 (or .def_277 .def_281)))
(let ((.def_265 (+ .def_263 .def_264)))
(let ((.def_266 (* (- 1.0) .def_251)))
(let ((.def_269 (+ .def_266 .def_265)))
(let ((.def_270 (+ b.y__AT1 .def_269)))
(let ((.def_271 (<= 0.0 .def_270)))
(let ((.def_252 (<= .def_251 b.y__AT1)))
(let ((.def_272 (and .def_252 .def_271)))
(let ((.def_283 (and .def_272 .def_282)))
(let ((.def_284 (and .def_63 .def_283)))
(let ((.def_32 (not b.counter.0__AT0)))
(let ((.def_30 (not b.counter.1__AT0)))
(let ((.def_33 (and .def_30 .def_32)))
(let ((.def_257 (or .def_33 b.counter.3__AT0)))
(let ((.def_38 (not b.counter.3__AT0)))
(let ((.def_35 (not b.counter.2__AT0)))
(let ((.def_36 (and .def_33 .def_35)))
(let ((.def_256 (or .def_36 .def_38)))
(let ((.def_258 (and .def_256 .def_257)))
(let ((.def_253 (and .def_63 .def_252)))
(let ((.def_248 (or .def_245 .def_247)))
(let ((.def_238 (or .def_158 .def_168)))
(let ((.def_242 (or b.counter.3__AT1 .def_238)))
(let ((.def_239 (or b.counter.2__AT1 .def_238)))
(let ((.def_237 (or .def_163 .def_168)))
(let ((.def_240 (and .def_237 .def_239)))
(let ((.def_241 (or .def_177 .def_240)))
(let ((.def_243 (and .def_241 .def_242)))
(let ((.def_249 (and .def_243 .def_248)))
(let ((.def_254 (and .def_249 .def_253)))
(let ((.def_232 (<= 0.0 b.delta__AT0)))
(let ((.def_51 (not b.EVENT.0__AT0)))
(let ((.def_49 (not b.EVENT.1__AT0)))
(let ((.def_100 (and .def_49 .def_51)))
(let ((.def_102 (not .def_100)))
(let ((.def_233 (or .def_102 .def_232)))
(let ((.def_234 (or b.EVENT.1__AT0 .def_233)))
(let ((.def_142 (= b.bool_atom__AT0 b.bool_atom__AT1)))
(let ((.def_137 (= b.counter.0__AT0 b.counter.0__AT1)))
(let ((.def_134 (= b.counter.1__AT0 b.counter.1__AT1)))
(let ((.def_131 (= b.counter.2__AT0 b.counter.2__AT1)))
(let ((.def_129 (= b.counter.3__AT0 b.counter.3__AT1)))
(let ((.def_132 (and .def_129 .def_131)))
(let ((.def_135 (and .def_132 .def_134)))
(let ((.def_138 (and .def_135 .def_137)))
(let ((.def_228 (and .def_138 .def_142)))
(let ((.def_229 (or .def_102 .def_228)))
(let ((.def_230 (or b.EVENT.1__AT0 .def_229)))
(let ((.def_217 (* b.delta__AT0 .def_70)))
(let ((.def_218 (* (- 1.0) b.speed_y__AT1)))
(let ((.def_221 (+ .def_218 .def_217)))
(let ((.def_222 (+ b.speed_y__AT0 .def_221)))
(let ((.def_223 (= .def_222 0.0 )))
(let ((.def_209 (* (- 1.0) b.y__AT1)))
(let ((.def_76 (* b.delta__AT0 b.speed_y__AT0)))
(let ((.def_212 (+ .def_76 .def_209)))
(let ((.def_69 (* b.delta__AT0 b.delta__AT0)))
(let ((.def_74 (* .def_69 .def_73)))
(let ((.def_213 (+ .def_74 .def_212)))
(let ((.def_214 (+ b.y__AT0 .def_213)))
(let ((.def_215 (= .def_214 0.0 )))
(let ((.def_120 (= b.x__AT0 b.x__AT1)))
(let ((.def_216 (and .def_120 .def_215)))
(let ((.def_224 (and .def_216 .def_223)))
(let ((.def_225 (or .def_102 .def_224)))
(let ((.def_123 (= b.y__AT0 b.y__AT1)))
(let ((.def_204 (and .def_120 .def_123)))
(let ((.def_126 (= b.speed_y__AT0 b.speed_y__AT1)))
(let ((.def_205 (and .def_126 .def_204)))
(let ((.def_201 (= b.delta__AT0 0.0 )))
(let ((.def_202 (and .def_100 .def_201)))
(let ((.def_203 (not .def_202)))
(let ((.def_206 (or .def_203 .def_205)))
(let ((.def_207 (or b.EVENT.1__AT0 .def_206)))
(let ((.def_194 (and .def_126 .def_138)))
(let ((.def_195 (or b.bool_atom__AT0 .def_194)))
(let ((.def_169 (or b.counter.0__AT0 .def_168)))
(let ((.def_167 (or .def_32 b.counter.0__AT1)))
(let ((.def_170 (and .def_167 .def_169)))
(let ((.def_171 (and .def_158 .def_170)))
(let ((.def_172 (or b.counter.1__AT0 .def_171)))
(let ((.def_166 (or .def_30 b.counter.1__AT1)))
(let ((.def_173 (and .def_166 .def_172)))
(let ((.def_185 (and .def_163 .def_173)))
(let ((.def_186 (or b.counter.2__AT0 .def_185)))
(let ((.def_180 (and .def_32 .def_158)))
(let ((.def_181 (or b.counter.1__AT0 .def_180)))
(let ((.def_182 (and .def_166 .def_181)))
(let ((.def_183 (and b.counter.2__AT1 .def_182)))
(let ((.def_184 (or .def_35 .def_183)))
(let ((.def_187 (and .def_184 .def_186)))
(let ((.def_188 (and b.counter.3__AT1 .def_187)))
(let ((.def_189 (or b.counter.3__AT0 .def_188)))
(let ((.def_174 (and b.counter.2__AT1 .def_173)))
(let ((.def_175 (or b.counter.2__AT0 .def_174)))
(let ((.def_161 (or b.counter.1__AT0 b.counter.1__AT1)))
(let ((.def_159 (and b.counter.0__AT1 .def_158)))
(let ((.def_160 (or .def_30 .def_159)))
(let ((.def_162 (and .def_160 .def_161)))
(let ((.def_164 (and .def_162 .def_163)))
(let ((.def_165 (or .def_35 .def_164)))
(let ((.def_176 (and .def_165 .def_175)))
(let ((.def_178 (and .def_176 .def_177)))
(let ((.def_179 (or .def_38 .def_178)))
(let ((.def_190 (and .def_179 .def_189)))
(let ((.def_155 (* b.speed_y__AT0 b.speed_y__AT0)))
(let ((.def_156 (= .def_154 .def_155)))
(let ((.def_152 (+ b.speed_y__AT0 b.speed_y__AT1)))
(let ((.def_153 (= .def_152 0.0 )))
(let ((.def_157 (and .def_153 .def_156)))
(let ((.def_191 (and .def_157 .def_190)))
(let ((.def_151 (not b.bool_atom__AT0)))
(let ((.def_192 (or .def_151 .def_191)))
(let ((.def_85 (<= 0.0 b.speed_y__AT0)))
(let ((.def_148 (not .def_85)))
(let ((.def_56 (* (- 1.0) b.x__AT0)))
(let ((.def_57 (* b.x__AT0 .def_56)))
(let ((.def_147 (= b.y__AT0 .def_57)))
(let ((.def_149 (and .def_147 .def_148)))
(let ((.def_150 (= b.bool_atom__AT0 .def_149)))
(let ((.def_193 (and .def_150 .def_192)))
(let ((.def_196 (and .def_193 .def_195)))
(let ((.def_197 (and .def_120 .def_196)))
(let ((.def_198 (and .def_123 .def_197)))
(let ((.def_199 (or .def_100 .def_198)))
(let ((.def_200 (or b.EVENT.1__AT0 .def_199)))
(let ((.def_208 (and .def_200 .def_207)))
(let ((.def_226 (and .def_208 .def_225)))
(let ((.def_107 (= b.time__AT0 b.time__AT1)))
(let ((.def_121 (and .def_107 .def_120)))
(let ((.def_124 (and .def_121 .def_123)))
(let ((.def_127 (and .def_124 .def_126)))
(let ((.def_139 (and .def_127 .def_138)))
(let ((.def_143 (and .def_139 .def_142)))
(let ((.def_144 (or .def_49 .def_143)))
(let ((.def_110 (* (- 1.0) b.time__AT1)))
(let ((.def_113 (+ b.delta__AT0 .def_110)))
(let ((.def_114 (+ b.time__AT0 .def_113)))
(let ((.def_115 (= .def_114 0.0 )))
(let ((.def_116 (or .def_102 .def_115)))
(let ((.def_117 (or b.EVENT.1__AT0 .def_116)))
(let ((.def_108 (or .def_100 .def_107)))
(let ((.def_109 (or b.EVENT.1__AT0 .def_108)))
(let ((.def_118 (and .def_109 .def_117)))
(let ((.def_145 (and .def_118 .def_144)))
(let ((.def_104 (= .def_102 b.event_is_timed__AT1)))
(let ((.def_101 (= b.event_is_timed__AT0 .def_100)))
(let ((.def_105 (and .def_101 .def_104)))
(let ((.def_146 (and .def_105 .def_145)))
(let ((.def_227 (and .def_146 .def_226)))
(let ((.def_231 (and .def_227 .def_230)))
(let ((.def_235 (and .def_231 .def_234)))
(let ((.def_236 (and .def_49 .def_235)))
(let ((.def_255 (and .def_236 .def_254)))
(let ((.def_259 (and .def_255 .def_258)))
(let ((.def_93 (* b.delta__AT0 .def_92)))
(let ((.def_94 (<= b.speed_y__AT0 .def_93)))
(let ((.def_91 (<= b.speed_y__AT0 0.0 )))
(let ((.def_95 (and .def_91 .def_94)))
(let ((.def_87 (* b.delta__AT0 .def_86)))
(let ((.def_88 (+ b.speed_y__AT0 .def_87)))
(let ((.def_89 (<= 0.0 .def_88)))
(let ((.def_90 (and .def_85 .def_89)))
(let ((.def_96 (or .def_90 .def_95)))
(let ((.def_77 (+ .def_74 .def_76)))
(let ((.def_78 (* (- 1.0) .def_57)))
(let ((.def_81 (+ .def_78 .def_77)))
(let ((.def_82 (+ b.y__AT0 .def_81)))
(let ((.def_83 (<= 0.0 .def_82)))
(let ((.def_58 (<= .def_57 b.y__AT0)))
(let ((.def_84 (and .def_58 .def_83)))
(let ((.def_97 (and .def_84 .def_96)))
(let ((.def_98 (and .def_63 .def_97)))
(let ((.def_64 (and .def_58 .def_63)))
(let ((.def_52 (or .def_49 .def_51)))
(let ((.def_42 (or .def_30 .def_32)))
(let ((.def_46 (or b.counter.3__AT0 .def_42)))
(let ((.def_43 (or b.counter.2__AT0 .def_42)))
(let ((.def_41 (or .def_32 .def_35)))
(let ((.def_44 (and .def_41 .def_43)))
(let ((.def_45 (or .def_38 .def_44)))
(let ((.def_47 (and .def_45 .def_46)))
(let ((.def_53 (and .def_47 .def_52)))
(let ((.def_65 (and .def_53 .def_64)))
(let ((.def_39 (and .def_36 .def_38)))
(let ((.def_27 (= b.y__AT0 10.0 )))
(let ((.def_23 (= b.x__AT0 0.0 )))
(let ((.def_19 (= b.time__AT0 0.0 )))
(let ((.def_21 (and .def_19 b.event_is_timed__AT0)))
(let ((.def_24 (and .def_21 .def_23)))
(let ((.def_28 (and .def_24 .def_27)))
(let ((.def_40 (and .def_28 .def_39)))
(let ((.def_66 (and .def_40 .def_65)))
(let ((.def_7 (and .def_4 .def_6)))
(let ((.def_14 (or .def_7 b.counter.3__AT4)))
(let ((.def_10 (and .def_7 .def_9)))
(let ((.def_13 (or .def_10 .def_12)))
(let ((.def_15 (and .def_13 .def_14)))
(let ((.def_16 (not .def_15)))
(let ((.def_67 (and .def_16 .def_66)))
(let ((.def_99 (and .def_67 .def_98)))
(let ((.def_260 (and .def_99 .def_259)))
(let ((.def_285 (and .def_260 .def_284)))
(let ((.def_447 (and .def_285 .def_446)))
(let ((.def_472 (and .def_447 .def_471)))
(let ((.def_634 (and .def_472 .def_633)))
(let ((.def_659 (and .def_634 .def_658)))
(let ((.def_813 (and .def_659 .def_812)))
(let ((.def_838 (and .def_813 .def_837)))
.def_838)))))))))))))))))))))))))))))))))))))))))))))))))))))))))))))))))))))))))))))))))))))))))))))))))))))))))))))))))))))))))))))))))))))))))))))))))))))))))))))))))))))))))))))))))))))))))))))))))))))))))))))))))))))))))))))))))))))))))))))))))))))))))))))))))))))))))))))))))))))))))))))))))))))))))))))))))))))))))))))))))))))))))))))))))))))))))))))))))))))))))))))))))))))))))))))))))))))))))))))))))))))))))))))))))))))))))))))))))))))))))))))))))))))))))))))))))))))))))))))))))))))))))))))))))))))))))))))))))))))))))))))))))))))))))))))))))))))))))))))))))))))))))))))))))))))))))))))))))))))))))))))))))))))))))))))))))))))))))))))))))))))))))))))))))))))))))))))))))))))))))))))))))))))))))))))))))))))))))))))))))))))))
(check-sat)
(exit)
